#######################################
### Exact MIP solver for the HHCRSP ###
#######################################
-- Instance file: new-instances/HHCRSP_25_5_41_0.8_R_RC.txt
-- Max threads: 4
-- Time limit: 999999 seconds
-- Use initial solution: No
Trivial flow violations prevented generating 807 variables.
Model exported.
Version identifier: 20.1.0.0 | 2020-11-10 | 9bedb6d68
CPXPARAM_Threads                                 4
CPXPARAM_TimeLimit                               999999
Tried aggregator 1 time.
LP Presolve eliminated 377 rows and 118 columns.
Reduced LP has 1091 rows, 1073 columns, and 6986 nonzeros.
Presolve time = 0.00 sec. (2.59 ticks)

Iteration log . . .
Iteration:     1   Dual objective     =             0.000000
Iteration:   114   Dual objective     =            85.333333

Solution status from MIP model:
-- Processing time: 0.007 sec.
-- Memory used: 14.8301 MB
-- Best bound: inf
-- Obj value: 85.3449
-- Gap: inf%
-- Total distance: 256.035
-- Total tardiness: 0
-- Largest tardiness: 0
